(set-logic QF_LRA)
(declare-fun X0 () Real )
(declare-fun Y0 () Real )
(declare-fun X1 () Real )
(declare-fun Y1 () Real )
(declare-fun X2 () Real )
(declare-fun Y2 () Real )
(declare-fun X3 () Real )
(declare-fun Y3 () Real )
(declare-fun X4 () Real )
(declare-fun Y4 () Real )
(declare-fun X5 () Real )
(declare-fun Y5 () Real )
(declare-fun X6 () Real )
(declare-fun Y6 () Real )
(declare-fun X7 () Real )
(declare-fun Y7 () Real )
(declare-fun X8 () Real )
(declare-fun Y8 () Real )
(declare-fun X9 () Real )
(declare-fun Y9 () Real )
(declare-fun X10 () Real )
(declare-fun Y10 () Real )
(declare-fun X11 () Real )
(declare-fun Y11 () Real )
(declare-fun Z () Real )
(declare-fun k () Real )
(assert (let
(( $goal (>= Z k) ))
(let
((
$phi ( and 
( or ( <= ( + X0 71 ) X1 )  ( <= ( + X1 52 ) X0 )  ( <= ( + Y0 90 ) Y1 )  ( <= ( + Y1 71 ) Y0 )  )
( or ( <= ( + X0 71 ) X2 )  ( <= ( + X2 33 ) X0 )  ( <= ( + Y0 90 ) Y2 )  ( <= ( + Y2 5 ) Y0 )  )
( or ( <= ( + X0 71 ) X3 )  ( <= ( + X3 36 ) X0 )  ( <= ( + Y0 90 ) Y3 )  ( <= ( + Y3 99 ) Y0 )  )
( or ( <= ( + X0 71 ) X4 )  ( <= ( + X4 66 ) X0 )  ( <= ( + Y0 90 ) Y4 )  ( <= ( + Y4 51 ) Y0 )  )
( or ( <= ( + X0 71 ) X5 )  ( <= ( + X5 78 ) X0 )  ( <= ( + Y0 90 ) Y5 )  ( <= ( + Y5 41 ) Y0 )  )
( or ( <= ( + X0 71 ) X6 )  ( <= ( + X6 12 ) X0 )  ( <= ( + Y0 90 ) Y6 )  ( <= ( + Y6 76 ) Y0 )  )
( or ( <= ( + X0 71 ) X7 )  ( <= ( + X7 94 ) X0 )  ( <= ( + Y0 90 ) Y7 )  ( <= ( + Y7 33 ) Y0 )  )
( or ( <= ( + X0 71 ) X8 )  ( <= ( + X8 39 ) X0 )  ( <= ( + Y0 90 ) Y8 )  ( <= ( + Y8 83 ) Y0 )  )
( or ( <= ( + X0 71 ) X9 )  ( <= ( + X9 2 ) X0 )  ( <= ( + Y0 90 ) Y9 )  ( <= ( + Y9 44 ) Y0 )  )
( or ( <= ( + X0 71 ) X10 )  ( <= ( + X10 28 ) X0 )  ( <= ( + Y0 90 ) Y10 )  ( <= ( + Y10 87 ) Y0 )  )
( or ( <= ( + X0 71 ) X11 )  ( <= ( + X11 69 ) X0 )  ( <= ( + Y0 90 ) Y11 )  ( <= ( + Y11 74 ) Y0 )  )
( or ( <= ( + X1 52 ) X2 )  ( <= ( + X2 33 ) X1 )  ( <= ( + Y1 71 ) Y2 )  ( <= ( + Y2 5 ) Y1 )  )
( or ( <= ( + X1 52 ) X3 )  ( <= ( + X3 36 ) X1 )  ( <= ( + Y1 71 ) Y3 )  ( <= ( + Y3 99 ) Y1 )  )
( or ( <= ( + X1 52 ) X4 )  ( <= ( + X4 66 ) X1 )  ( <= ( + Y1 71 ) Y4 )  ( <= ( + Y4 51 ) Y1 )  )
( or ( <= ( + X1 52 ) X5 )  ( <= ( + X5 78 ) X1 )  ( <= ( + Y1 71 ) Y5 )  ( <= ( + Y5 41 ) Y1 )  )
( or ( <= ( + X1 52 ) X6 )  ( <= ( + X6 12 ) X1 )  ( <= ( + Y1 71 ) Y6 )  ( <= ( + Y6 76 ) Y1 )  )
( or ( <= ( + X1 52 ) X7 )  ( <= ( + X7 94 ) X1 )  ( <= ( + Y1 71 ) Y7 )  ( <= ( + Y7 33 ) Y1 )  )
( or ( <= ( + X1 52 ) X8 )  ( <= ( + X8 39 ) X1 )  ( <= ( + Y1 71 ) Y8 )  ( <= ( + Y8 83 ) Y1 )  )
( or ( <= ( + X1 52 ) X9 )  ( <= ( + X9 2 ) X1 )  ( <= ( + Y1 71 ) Y9 )  ( <= ( + Y9 44 ) Y1 )  )
( or ( <= ( + X1 52 ) X10 )  ( <= ( + X10 28 ) X1 )  ( <= ( + Y1 71 ) Y10 )  ( <= ( + Y10 87 ) Y1 )  )
( or ( <= ( + X1 52 ) X11 )  ( <= ( + X11 69 ) X1 )  ( <= ( + Y1 71 ) Y11 )  ( <= ( + Y11 74 ) Y1 )  )
( or ( <= ( + X2 33 ) X3 )  ( <= ( + X3 36 ) X2 )  ( <= ( + Y2 5 ) Y3 )  ( <= ( + Y3 99 ) Y2 )  )
( or ( <= ( + X2 33 ) X4 )  ( <= ( + X4 66 ) X2 )  ( <= ( + Y2 5 ) Y4 )  ( <= ( + Y4 51 ) Y2 )  )
( or ( <= ( + X2 33 ) X5 )  ( <= ( + X5 78 ) X2 )  ( <= ( + Y2 5 ) Y5 )  ( <= ( + Y5 41 ) Y2 )  )
( or ( <= ( + X2 33 ) X6 )  ( <= ( + X6 12 ) X2 )  ( <= ( + Y2 5 ) Y6 )  ( <= ( + Y6 76 ) Y2 )  )
( or ( <= ( + X2 33 ) X7 )  ( <= ( + X7 94 ) X2 )  ( <= ( + Y2 5 ) Y7 )  ( <= ( + Y7 33 ) Y2 )  )
( or ( <= ( + X2 33 ) X8 )  ( <= ( + X8 39 ) X2 )  ( <= ( + Y2 5 ) Y8 )  ( <= ( + Y8 83 ) Y2 )  )
( or ( <= ( + X2 33 ) X9 )  ( <= ( + X9 2 ) X2 )  ( <= ( + Y2 5 ) Y9 )  ( <= ( + Y9 44 ) Y2 )  )
( or ( <= ( + X2 33 ) X10 )  ( <= ( + X10 28 ) X2 )  ( <= ( + Y2 5 ) Y10 )  ( <= ( + Y10 87 ) Y2 )  )
( or ( <= ( + X2 33 ) X11 )  ( <= ( + X11 69 ) X2 )  ( <= ( + Y2 5 ) Y11 )  ( <= ( + Y11 74 ) Y2 )  )
( or ( <= ( + X3 36 ) X4 )  ( <= ( + X4 66 ) X3 )  ( <= ( + Y3 99 ) Y4 )  ( <= ( + Y4 51 ) Y3 )  )
( or ( <= ( + X3 36 ) X5 )  ( <= ( + X5 78 ) X3 )  ( <= ( + Y3 99 ) Y5 )  ( <= ( + Y5 41 ) Y3 )  )
( or ( <= ( + X3 36 ) X6 )  ( <= ( + X6 12 ) X3 )  ( <= ( + Y3 99 ) Y6 )  ( <= ( + Y6 76 ) Y3 )  )
( or ( <= ( + X3 36 ) X7 )  ( <= ( + X7 94 ) X3 )  ( <= ( + Y3 99 ) Y7 )  ( <= ( + Y7 33 ) Y3 )  )
( or ( <= ( + X3 36 ) X8 )  ( <= ( + X8 39 ) X3 )  ( <= ( + Y3 99 ) Y8 )  ( <= ( + Y8 83 ) Y3 )  )
( or ( <= ( + X3 36 ) X9 )  ( <= ( + X9 2 ) X3 )  ( <= ( + Y3 99 ) Y9 )  ( <= ( + Y9 44 ) Y3 )  )
( or ( <= ( + X3 36 ) X10 )  ( <= ( + X10 28 ) X3 )  ( <= ( + Y3 99 ) Y10 )  ( <= ( + Y10 87 ) Y3 )  )
( or ( <= ( + X3 36 ) X11 )  ( <= ( + X11 69 ) X3 )  ( <= ( + Y3 99 ) Y11 )  ( <= ( + Y11 74 ) Y3 )  )
( or ( <= ( + X4 66 ) X5 )  ( <= ( + X5 78 ) X4 )  ( <= ( + Y4 51 ) Y5 )  ( <= ( + Y5 41 ) Y4 )  )
( or ( <= ( + X4 66 ) X6 )  ( <= ( + X6 12 ) X4 )  ( <= ( + Y4 51 ) Y6 )  ( <= ( + Y6 76 ) Y4 )  )
( or ( <= ( + X4 66 ) X7 )  ( <= ( + X7 94 ) X4 )  ( <= ( + Y4 51 ) Y7 )  ( <= ( + Y7 33 ) Y4 )  )
( or ( <= ( + X4 66 ) X8 )  ( <= ( + X8 39 ) X4 )  ( <= ( + Y4 51 ) Y8 )  ( <= ( + Y8 83 ) Y4 )  )
( or ( <= ( + X4 66 ) X9 )  ( <= ( + X9 2 ) X4 )  ( <= ( + Y4 51 ) Y9 )  ( <= ( + Y9 44 ) Y4 )  )
( or ( <= ( + X4 66 ) X10 )  ( <= ( + X10 28 ) X4 )  ( <= ( + Y4 51 ) Y10 )  ( <= ( + Y10 87 ) Y4 )  )
( or ( <= ( + X4 66 ) X11 )  ( <= ( + X11 69 ) X4 )  ( <= ( + Y4 51 ) Y11 )  ( <= ( + Y11 74 ) Y4 )  )
( or ( <= ( + X5 78 ) X6 )  ( <= ( + X6 12 ) X5 )  ( <= ( + Y5 41 ) Y6 )  ( <= ( + Y6 76 ) Y5 )  )
( or ( <= ( + X5 78 ) X7 )  ( <= ( + X7 94 ) X5 )  ( <= ( + Y5 41 ) Y7 )  ( <= ( + Y7 33 ) Y5 )  )
( or ( <= ( + X5 78 ) X8 )  ( <= ( + X8 39 ) X5 )  ( <= ( + Y5 41 ) Y8 )  ( <= ( + Y8 83 ) Y5 )  )
( or ( <= ( + X5 78 ) X9 )  ( <= ( + X9 2 ) X5 )  ( <= ( + Y5 41 ) Y9 )  ( <= ( + Y9 44 ) Y5 )  )
( or ( <= ( + X5 78 ) X10 )  ( <= ( + X10 28 ) X5 )  ( <= ( + Y5 41 ) Y10 )  ( <= ( + Y10 87 ) Y5 )  )
( or ( <= ( + X5 78 ) X11 )  ( <= ( + X11 69 ) X5 )  ( <= ( + Y5 41 ) Y11 )  ( <= ( + Y11 74 ) Y5 )  )
( or ( <= ( + X6 12 ) X7 )  ( <= ( + X7 94 ) X6 )  ( <= ( + Y6 76 ) Y7 )  ( <= ( + Y7 33 ) Y6 )  )
( or ( <= ( + X6 12 ) X8 )  ( <= ( + X8 39 ) X6 )  ( <= ( + Y6 76 ) Y8 )  ( <= ( + Y8 83 ) Y6 )  )
( or ( <= ( + X6 12 ) X9 )  ( <= ( + X9 2 ) X6 )  ( <= ( + Y6 76 ) Y9 )  ( <= ( + Y9 44 ) Y6 )  )
( or ( <= ( + X6 12 ) X10 )  ( <= ( + X10 28 ) X6 )  ( <= ( + Y6 76 ) Y10 )  ( <= ( + Y10 87 ) Y6 )  )
( or ( <= ( + X6 12 ) X11 )  ( <= ( + X11 69 ) X6 )  ( <= ( + Y6 76 ) Y11 )  ( <= ( + Y11 74 ) Y6 )  )
( or ( <= ( + X7 94 ) X8 )  ( <= ( + X8 39 ) X7 )  ( <= ( + Y7 33 ) Y8 )  ( <= ( + Y8 83 ) Y7 )  )
( or ( <= ( + X7 94 ) X9 )  ( <= ( + X9 2 ) X7 )  ( <= ( + Y7 33 ) Y9 )  ( <= ( + Y9 44 ) Y7 )  )
( or ( <= ( + X7 94 ) X10 )  ( <= ( + X10 28 ) X7 )  ( <= ( + Y7 33 ) Y10 )  ( <= ( + Y10 87 ) Y7 )  )
( or ( <= ( + X7 94 ) X11 )  ( <= ( + X11 69 ) X7 )  ( <= ( + Y7 33 ) Y11 )  ( <= ( + Y11 74 ) Y7 )  )
( or ( <= ( + X8 39 ) X9 )  ( <= ( + X9 2 ) X8 )  ( <= ( + Y8 83 ) Y9 )  ( <= ( + Y9 44 ) Y8 )  )
( or ( <= ( + X8 39 ) X10 )  ( <= ( + X10 28 ) X8 )  ( <= ( + Y8 83 ) Y10 )  ( <= ( + Y10 87 ) Y8 )  )
( or ( <= ( + X8 39 ) X11 )  ( <= ( + X11 69 ) X8 )  ( <= ( + Y8 83 ) Y11 )  ( <= ( + Y11 74 ) Y8 )  )
( or ( <= ( + X9 2 ) X10 )  ( <= ( + X10 28 ) X9 )  ( <= ( + Y9 44 ) Y10 )  ( <= ( + Y10 87 ) Y9 )  )
( or ( <= ( + X9 2 ) X11 )  ( <= ( + X11 69 ) X9 )  ( <= ( + Y9 44 ) Y11 )  ( <= ( + Y11 74 ) Y9 )  )
( or ( <= ( + X10 28 ) X11 )  ( <= ( + X11 69 ) X10 )  ( <= ( + Y10 87 ) Y11 )  ( <= ( + Y11 74 ) Y10 )  )
( >= X0 0)
( <= ( + X0 71) Z)
( >= Y0 0)
( <= ( + Y0 90 ) 100)
( >= X1 0)
( <= ( + X1 52) Z)
( >= Y1 0)
( <= ( + Y1 71 ) 100)
( >= X2 0)
( <= ( + X2 33) Z)
( >= Y2 0)
( <= ( + Y2 5 ) 100)
( >= X3 0)
( <= ( + X3 36) Z)
( >= Y3 0)
( <= ( + Y3 99 ) 100)
( >= X4 0)
( <= ( + X4 66) Z)
( >= Y4 0)
( <= ( + Y4 51 ) 100)
( >= X5 0)
( <= ( + X5 78) Z)
( >= Y5 0)
( <= ( + Y5 41 ) 100)
( >= X6 0)
( <= ( + X6 12) Z)
( >= Y6 0)
( <= ( + Y6 76 ) 100)
( >= X7 0)
( <= ( + X7 94) Z)
( >= Y7 0)
( <= ( + Y7 33 ) 100)
( >= X8 0)
( <= ( + X8 39) Z)
( >= Y8 0)
( <= ( + Y8 83 ) 100)
( >= X9 0)
( <= ( + X9 2) Z)
( >= Y9 0)
( <= ( + Y9 44 ) 100)
( >= X10 0)
( <= ( + X10 28) Z)
( >= Y10 0)
( <= ( + Y10 87 ) 100)
( >= X11 0)
( <= ( + X11 69) Z)
( >= Y11 0)
( <= ( + Y11 74 ) 100)
) )
)(=> $phi $goal))))